Linux optc-04-04 4.15.0-88-generic #88-Ubuntu SMP Tue Feb 11 20:11:34 UTC 2020 x86_64 x86_64 x86_64 GNU/Linux

top - 04:22:41 up 2 days, 14:58,  0 users,  load average: 0,95, 0,90, 0,92
Tasks: 466 gesamt,   1 laufend, 235 schlafend,   0 gestoppt,   0 Zombie
%CPU(s): 17,4 be,  4,5 sy,  0,0 ni, 78,0 un,  0,0 wa,  0,0 hi,  0,0 si,  0,0 st
KiB Spch : 65916192 gesamt, 62218836 frei,   722276 belegt,  2975080 Puff/Cache
KiB Swap:  8388604 gesamt,  8388604 frei,        0 belegt. 64618252 verfü Spch 

  PID USER      PR  NI    VIRT    RES    SHR S  %CPU %MEM     ZEIT+ BEFEHL
28204 bzfhende  20   0   52808   4396   3460 R   8,0  0,0   0:00.04 top
    1 root      20   0  233684   9260   6724 S   0,0  0,0   0:17.49 systemd
    2 root      20   0       0      0      0 S   0,0  0,0   0:00.25 kthreadd
    4 root       0 -20       0      0      0 I   0,0  0,0   0:00.00 kworker/0:+
    5 root      20   0       0      0      0 I   0,0  0,0   0:43.43 kworker/u9+
    7 root       0 -20       0      0      0 I   0,0  0,0   0:00.00 mm_percpu_+
    8 root      20   0       0      0      0 S   0,0  0,0   0:00.33 ksoftirqd/0
    9 root      20   0       0      0      0 I   0,0  0,0   0:59.53 rcu_sched

hard time limit: 00-04:10:00
hard mem limit: 38600

SLURM jobID: 6405068

@01 /nfs/OPTI/bzfhende/instances//./miplib2010_opm2/instances/opm2-z12-s4.mps.gz ===========
-----------------------------
So 8. Mär 04:22:41 CET 2020
-----------------------------
@03 1583637761
@05 7200
SCIP version 7.0.0 [precision: 8 byte] [memory: block] [mode: optimized] [LP solver: CPLEX 12.10.0.0] [GitHash: 297532de76]
Copyright (C) 2002-2020 Konrad-Zuse-Zentrum fuer Informationstechnik Berlin (ZIB)

External codes: 
  Readline 7.0         GNU library for command line editing (gnu.org/s/readline)
  CPLEX 12.10.0.0      Linear Programming Solver developed by IBM (www.cplex.com)
  CppAD 20180000.0     Algorithmic Differentiation of C++ algorithms developed by B. Bell (www.coin-or.org/CppAD)
  ZLIB 1.2.11          General purpose compression library by J. Gailly and M. Adler (zlib.net)
  GMP 6.1.2            GNU Multiple Precision Arithmetic Library developed by T. Granlund (gmplib.org)
  bliss 0.73p          Computing Graph Automorphism Groups by T. Junttila and P. Kaski (http://www.tcs.hut.fi/Software/bliss/)

user parameter file <scip.set> not found - using default parameters

SCIP> 
SCIP> set load /nfs/OPTI/bzfhende/scip-opti/check/../settings/periodic_report.sett
loaded parameter file </nfs/OPTI/bzfhende/scip-opti/check/../settings/periodic_report.set>
SCIP> set limits time 7200
limits/time = 7200
SCIP> set limits nodes 2100000000
limits/nodes = 2100000000
SCIP> set limits memory 35000
limits/memory = 35000
SCIP> set lp advanced threads 1
lp/threads = 1
SCIP> set timing clocktype 1
timing/clocktype = 1
SCIP> set display freq 10000
display/freq = 10000
SCIP> set memory savefac 1.0
memory/savefac = 1
SCIP> set save /nfs/OPTI/bzfhende/scip-opti/check/treesize.prediction.opm2/bzfhennde.instancegroups_opm2.49_opm2-z12-s4.scip.M620v2.periodic_report.set
saved parameter file </nfs/OPTI/bzfhende/scip-opti/check/treesize.prediction.opm2/bzfhende.instancegroups_opm2.49_opm2-z12-s4.scip.M620v2.periodic_report.set>
SCIP> read /nfs/OPTI/bzfhende/instances//./miplib2010_opm2/instances/opm2-z12-s4..mps.gz

read problem </nfs/OPTI/bzfhende/instances//./miplib2010_opm2/instances/opm2-z12-s4.mps.gz>
============

original problem has 10800 variables (10800 bin, 0 int, 0 impl, 0 cont) and 319508 constraints
SCIP> display parameters

number of parameters = 2603
non-default parameter settings:
display/freq = 10000
limits/time = 7200
limits/nodes = 2100000000
limits/memory = 35000
lp/threads = 1
memory/savefac = 1
timing/clocktype = 1
estimation/restarts/restartpolicy = n
estimation/restarts/restartlimit = 0
estimation/reportfreq = 100
estimation/treeprofile/enabled = TRUE

SCIP> optimize

feasible solution found by trivial heuristic after 0.4 seconds, objective value 0.000000e+00
presolving:
(round 1, fast)       408 del vars, 19512 del conss, 0 add conss, 0 chg bounds, 0 chg sides, 0 chg coeffs, 0 upgd conss, 0 impls, 299948 clqs
(round 2, fast)       419 del vars, 20291 del conss, 0 add conss, 0 chg bounds, 0 chg sides, 0 chg coeffs, 0 upgd conss, 0 impls, 299189 clqs
(round 3, exhaustive) 420 del vars, 20360 del conss, 0 add conss, 0 chg bounds, 0 chg sides, 0 chg coeffs, 299148 upgd conss, 0 impls, 299140 clqs
(round 4, fast)       446 del vars, 20966 del conss, 0 add conss, 0 chg bounds, 0 chg sides, 0 chg coeffs, 299148 upgd conss, 0 impls, 297822 clqs
(round 5, fast)       447 del vars, 21727 del conss, 0 add conss, 0 chg bounds, 0 chg sides, 0 chg coeffs, 299148 upgd conss, 0 impls, 297773 clqs
   (56.2s) probing: 1000/10352 (9.7%) - 0 fixings, 0 aggregations, 344151 implications, 0 bound changes
   (56.2s) probing: 1001/10352 (9.7%) - 0 fixings, 0 aggregations, 344518 implications, 0 bound changes
   (56.2s) probing aborted: 1000/1000 successive useless probings
   (62.1s) symmetry computation started: requiring (bin +, int +, cont +), (fixed: bin -, int -, cont -)
   (62.5s) no symmetry present
presolving (6 rounds: 6 fast, 2 medium, 2 exhaustive):
 448 deleted vars, 21776 deleted constraints, 0 added constraints, 0 tightened bounds, 0 added holes, 0 changed sides, 0 changed coefficients
 0 implications, 642242 cliques
presolved problem has 10352 variables (10352 bin, 0 int, 0 impl, 0 cont) and 297732 constraints
      8 constraints of type <knapsack>
 297724 constraints of type <setppc>
transformed objective value is always integral (scale: 1)
Presolving Time: 62.27
transformed 1/1 original solutions to the transformed problem space

 time | node  | left  |LP iter|LP it/n|mem/heur|mdpt |vars |cons |rows |cuts |sepa|confs|strbr|  dualbound   | primalbound  |  gap   | compl. 
p65.1s|     1 |     0 |     0 |     - | vbounds|   0 |  10k| 297k| 297k|   0 |  0 |   7 |   0 |-9.582700e+05 |-3.568400e+04 |2585.43%| unknown
  155s|     1 |     0 | 44036 |     - |  2427M |   0 |  10k| 297k| 297k|   0 |  0 |  18 |   0 |-9.101108e+04 |-3.568400e+04 | 155.05%| unknown
r 157s|     1 |     0 | 44036 |     - |shifting|   0 |  10k| 297k| 297k|   0 |  0 |  19 |   0 |-9.101108e+04 |-3.665900e+04 | 148.26%| unknown
i 158s|     1 |     0 | 44036 |     - |  oneopt|   0 |  10k| 297k| 297k|   0 |  0 |  19 |   0 |-9.101108e+04 |-3.684800e+04 | 146.99%| unknown
d1911s|     1 |     0 |123319 |     - |farkasdi|   0 |  10k| 297k| 297k|   0 |  2 |  19 |   0 |-9.101108e+04 |-5.487900e+04 |  65.84%| unknown
 3500s|     1 |     0 |177637 |     - |  2515M |   0 |  10k| 297k| 297k|   0 |  2 |  49 |   0 |-9.101108e+04 |-5.487900e+04 |  65.84%| unknown
 4041s|     1 |     2 |177637 |     - |  2538M |   0 |  10k| 297k| 297k|   0 |  4 |  49 |  33 |-8.976071e+04 |-5.487900e+04 |  63.56%| unknown

SCIP Status        : solving was interrupted [time limit reached]
Solving Time (sec) : 7199.95
Solving Nodes      : 21
Primal Bound       : -5.48790000000000e+04 (6 solutions)
Dual Bound         : -8.84525833265361e+04
Gap                : 61.18 %

SCIP> display statistics

SCIP Status        : solving was interrupted [time limit reached]
Total Time         :    7200.98
  solving          :    7199.95
  presolving       :      62.27 (included in solving)
  reading          :       1.03
  copying          :       0.39 (1 #copies) (minimal 0.39, maximal 0.39, average 0.39)
Original Problem   :
  Problem name     : opm2-z12-s4
  Variables        : 10800 (10800 binary, 0 integer, 0 implicit integer, 0 continuous)
  Constraints      : 319508 initial, 319508 maximal
  Objective        : minimize, 10738 non-zeros (abs.min = 1, abs.max = 573)
Presolved Problem  :
  Problem name     : t_opm2-z12-s4
  Variables        : 10352 (10352 binary, 0 integer, 0 implicit integer, 0 continuous)
  Constraints      : 297732 initial, 297778 maximal
  Objective        : minimize, 10292 non-zeros (abs.min = 1, abs.max = 573)
  Nonzeros         : 678245 constraint, 1284488 clique table
Presolvers         :   ExecTime  SetupTime  Calls  FixedVars   AggrVars   ChgTypes  ChgBounds   AddHoles    DelCons    AddCons   ChgSides   ChgCoefs
  boundshift       :       0.00       0.00      0          0          0          0          0          0          0          0          0          0
  convertinttobin  :       0.00       0.00      0          0          0          0          0          0          0          0          0          0
  domcol           :       0.17       0.00      1          0          0          0          0          0          0          0          0          0
  dualagg          :       0.00       0.00      0          0          0          0          0          0          0          0          0          0
  dualcomp         :       0.00       0.00      0          0          0          0          0          0          0          0          0          0
  dualinfer        :       0.00       0.00      0          0          0          0          0          0          0          0          0          0
  dualsparsify     :       5.87       0.00      1          0          0          0          0          0          0          0          0          0
  gateextraction   :       0.00       0.00      0          0          0          0          0          0          0          0          0          0
  implics          :       0.00       0.00      2          0          0          0          0          0          0          0          0          0
  inttobinary      :       0.00       0.00      0          0          0          0          0          0          0          0          0          0
  qpkktref         :       0.00       0.00      0          0          0          0          0          0          0          0          0          0
  redvub           :       0.00       0.00      0          0          0          0          0          0          0          0          0          0
  sparsify         :       0.22       0.00      1          0          0          0          0          0          0          0          0          0
  stuffing         :       0.00       0.00      0          0          0          0          0          0          0          0          0          0
  trivial          :       0.00       0.00      6          0          0          0          0          0          0          0          0          0
  tworowbnd        :       0.19       0.00      1          0          0          0          0          0          0          0          0          0
  dualfix          :       0.00       0.00      6        412          0          0          0          0          0          0          0          0
  genvbounds       :       0.00       0.00      0          0          0          0          0          0          0          0          0          0
  probing          :      49.59       0.00      1          0          0          0          0          0          0          0          0          0
  pseudoobj        :       0.00       0.00      3          0          0          0          0          0          0          0          0          0
  symmetry         :       0.41       0.00      1          0          0          0          0          0          0          0          0          0
  vbounds          :       0.04       0.00      1          0          0          0          0          0          0          0          0          0
  knapsack         :       1.85       0.00      5          0          0          0          0          0          0          0          0          0
  setppc           :       0.97       0.02      5         26          0          0          0          0       1416          0          0          0
  linear           :       2.65       0.08      4          0         10          0          0          0      20360          0          0          0
  logicor          :       0.00       0.00      0          0          0          0          0          0          0          0          0          0
  benders          :       0.00       0.00      0          0          0          0          0          0          0          0          0          0
  components       :       0.09       0.00      1          0          0          0          0          0          0          0          0          0
  root node        :          -          -      -          0          -          -          0          -          -          -          -          -
Constraints        :     Number  MaxNumber  #Separate #Propagate    #EnfoLP    #EnfoRelax  #EnfoPS    #Check   #ResProp    Cutoffs    DomReds       Cuts    Applied      Conss   Children
  benderslp        :          0          0          0          0         18          0          0         13          0          0          0          0          0          0          0
  integral         :          0          0          0          0         18          0          0         13          0          0          1          0          0          1         34
  knapsack         :          8          8          2      30502          0          0          0          8          6          9          0          0          0          0          0
  setppc           :     297724+    297726          2      30841          0          0          0          6      27188          7       3137          0          0          0          0
  logicor          :          0+        45          2        222          0          0          0          0          1          0          0          0          0          0          0
  benders          :          0          0          0          0          0          0          0          8          0          0          0          0          0          0          0
  countsols        :          0          0          0          0          0          0          0          8          0          0          0          0          0          0          0
  components       :          0          0          0          0          0          0          0          0          0          0          0          0          0          0          0
Constraint Timings :  TotalTime  SetupTime   Separate  Propagate     EnfoLP     EnfoPS     EnfoRelax   Check    ResProp    SB-Prop
  benderslp        :       0.00       0.00       0.00       0.00       0.00       0.00       0.00       0.00       0.00       0.00
  integral         :    2778.22       0.00       0.00       0.00    2778.22       0.00       0.00       0.00       0.00       0.00
  knapsack         :      30.96       0.00      27.79       2.97       0.00       0.00       0.00       0.03       0.00       0.17
  setppc           :      13.60       0.02       0.14      12.51       0.00       0.00       0.00       0.07       0.02       0.84
  logicor          :       0.00       0.00       0.00       0.00       0.00       0.00       0.00       0.00       0.00       0.00
  benders          :       0.00       0.00       0.00       0.00       0.00       0.00       0.00       0.00       0.00       0.00
  countsols        :       0.00       0.00       0.00       0.00       0.00       0.00       0.00       0.00       0.00       0.00
  components       :       0.00       0.00       0.00       0.00       0.00       0.00       0.00       0.00       0.00       0.00
Propagators        : #Propagate   #ResProp    Cutoffs    DomReds
  dualfix          :          3          0          0          0
  genvbounds       :          0          0          0          0
  nlobbt           :          0          0          0          0
  obbt             :          0          0          0          0
  probing          :          0          0          0          0
  pseudoobj        :        156          0          0          0
  redcost          :         27          0          0          1
  rootredcost      :          1          0          0          0
  symmetry         :          0          0          0          0
  vbounds          :      22992          0          0          0
Propagator Timings :  TotalTime  SetupTime   Presolve  Propagate    ResProp    SB-Prop
  dualfix          :       0.01       0.00       0.00       0.01       0.00       0.00
  genvbounds       :       0.02       0.00       0.00       0.02       0.00       0.00
  nlobbt           :       0.00       0.00       0.00       0.00       0.00       0.00
  obbt             :       0.00       0.00       0.00       0.00       0.00       0.00
  probing          :      49.59       0.00      49.59       0.00       0.00       0.00
  pseudoobj        :       0.19       0.00       0.00       0.19       0.00       0.00
  redcost          :       0.03       0.00       0.00       0.02       0.00       0.01
  rootredcost      :       0.02       0.00       0.00       0.02       0.00       0.00
  symmetry         :       0.41       0.00       0.41       0.00       0.00       0.00
  vbounds          :       0.10       0.00       0.04       0.05       0.00       0.01
Conflict Analysis  :       Time      Calls    Success    DomReds  Conflicts   Literals    Reconvs ReconvLits   Dualrays   Nonzeros   LP Iters   (pool size: [10000,10000])
  propagation      :       0.12         13         13          -        822     1266.6          0        0.0          -          -          -
  infeasible LP    :       0.00          0          0          -          0        0.0          0        0.0          0        0.0          0
  bound exceed. LP :       1.53          4          3          -        239     1262.4          0        0.0          0        0.0         80
  strong branching :       0.00          0          0          -          0        0.0          0        0.0          -          -          0
  pseudo solution  :       0.00          0          0          -          0        0.0          0        0.0          -          -          -
  applied globally :       0.01          -          -          0         50      653.0          -          -          0          -          -
  applied locally  :          -          -          -          0          0        0.0          -          -          0          -          -
Separators         :   ExecTime  SetupTime      Calls    Cutoffs    DomReds       Cuts    Applied      Conss
  cut pool         :       0.00                     0          -          -          0          -          -    (maximal pool size: 0)
  aggregation      :      43.12       0.00          3          0          0          0          0          0
  cgmip            :       0.00       0.00          0          0          0          0          0          0
  clique           :      12.10       0.00          2          0          0          0          0          0
  closecuts        :       0.00       0.00          0          0          0          0          0          0
  cmir             :       0.00       0.00          0          0          0          0          0          0
  convexproj       :       0.00       0.00          0          0          0          0          0          0
  disjunctive      :       0.00       0.00          0          0          0          0          0          0
  eccuts           :       0.00       0.00          0          0          0          0          0          0
  flowcover        :       0.00       0.00          0          0          0          0          0          0
  gauge            :       0.00       0.00          0          0          0          0          0          0
  gomory           :     228.64       0.00          3          0          0          0          0          0
  impliedbounds    :       0.04       0.00          3          0          0          0          0          0
  intobj           :       0.00       0.00          0          0          0          0          0          0
  mcf              :       0.16       0.00          1          0          0          0          0          0
  oddcycle         :       0.00       0.00          0          0          0          0          0          0
  rapidlearning    :       0.02       0.00          0          0          0          0          0          0
  strongcg         :      92.48       0.00          2          0          0          0          0          0
  zerohalf         :      56.09       0.00          3          0          0          0          0          0
Pricers            :   ExecTime  SetupTime      Calls       Vars
  problem variables:       0.00          -          0          0
Branching Rules    :   ExecTime  SetupTime   BranchLP  BranchExt   BranchPS    Cutoffs    DomReds       Cuts      Conss   Children
  allfullstrong    :       0.00       0.00          0          0          0          0          0          0          0          0
  cloud            :       0.00       0.00          0          0          0          0          0          0          0          0
  distribution     :       0.00       0.00          0          0          0          0          0          0          0          0
  fullstrong       :       0.00       0.00          0          0          0          0          0          0          0          0
  inference        :       0.00       0.00          0          0          0          0          0          0          0          0
  leastinf         :       0.00       0.00          0          0          0          0          0          0          0          0
  lookahead        :       0.00       0.00          0          0          0          0          0          0          0          0
  mostinf          :       0.00       0.00          0          0          0          0          0          0          0          0
  multaggr         :       0.00       0.00          0          0          0          0          0          0          0          0
  nodereopt        :       0.00       0.00          0          0          0          0          0          0          0          0
  pscost           :       0.00       0.00          0          0          0          0          0          0          0          0
  random           :       0.00       0.00          0          0          0          0          0          0          0          0
  relpscost        :    2778.22       0.00         18          0          0          0          1          0          1         34
  vanillafullstrong:       0.00       0.00          0          0          0          0          0          0          0          0
Primal Heuristics  :   ExecTime  SetupTime      Calls      Found       Best
  LP solutions     :       0.00          -          -          0          0
  relax solutions  :       0.00          -          -          0          0
  pseudo solutions :       0.00          -          -          0          0
  strong branching :       0.00          -          -          0          0
  actconsdiving    :       0.00       0.00          0          0          0
  adaptivediving   :       0.00       0.00          0          0          0
  alns             :       1.13       0.00          1          0          0
  bound            :       0.00       0.00          0          0          0
  clique           :       0.41       0.00          1          0          0
  coefdiving       :       0.00       0.00          0          0          0
  completesol      :       0.00       0.00          0          0          0
  conflictdiving   :     597.92       0.00          1          0          0
  crossover        :       0.00       0.00          0          0          0
  dins             :       0.00       0.00          0          0          0
  distributiondivin:       0.00       0.00          0          0          0
  dualval          :       0.00       0.00          0          0          0
  farkasdiving     :    1596.97       0.00          1          1          1
  feaspump         :     989.55       0.00          1          0          0
  fixandinfer      :       0.00       0.00          0          0          0
  fracdiving       :       0.00       0.00          0          0          0
  gins             :       0.00       0.00          0          0          0
  guideddiving     :       0.00       0.00          0          0          0
  indicator        :       0.00       0.00          0          0          0
  intdiving        :       0.00       0.00          0          0          0
  intshifting      :       0.00       0.00          0          0          0
  linesearchdiving :       0.00       0.00          0          0          0
  localbranching   :       0.00       0.00          0          0          0
  locks            :       0.67       0.00          1          0          0
  lpface           :       0.00       0.00          0          0          0
  mpec             :       0.00       0.00          0          0          0
  multistart       :       0.00       0.00          0          0          0
  mutation         :       0.00       0.00          0          0          0
  nlpdiving        :       0.00       0.00          0          0          0
  objpscostdiving  :       0.00       0.00          0          0          0
  octane           :       0.00       0.00          0          0          0
  ofins            :       0.00       0.00          0          0          0
  oneopt           :       0.10       0.00          3          1          1
  padm             :       0.00       0.00          0          0          0
  proximity        :       0.00       0.00          0          0          0
  pscostdiving     :       0.00       0.00          0          0          0
  randrounding     :       0.53       0.00          2          1          0
  rens             :       0.00       0.00          0          0          0
  reoptsols        :       0.00       0.00          0          0          0
  repair           :       0.00       0.00          0          0          0
  rins             :       0.00       0.00          0          0          0
  rootsoldiving    :       0.00       0.00          0          0          0
  rounding         :      18.18       0.00         19          0          0
  shiftandpropagate:       0.00       0.00          0          0          0
  shifting         :       3.49       0.00          3          1          1
  simplerounding   :       0.00       0.00         20          0          0
  subnlp           :       0.00       0.00          0          0          0
  trivial          :       0.04       0.00          2          1          1
  trivialnegation  :       0.00       0.00          0          0          0
  trustregion      :       0.00       0.00          0          0          0
  trysol           :       0.00       0.00          0          0          0
  twoopt           :       0.00       0.00          0          0          0
  undercover       :       0.00       0.00          0          0          0
  vbounds          :       3.35       0.00          1          1          1
  veclendiving     :       0.00       0.00          0          0          0
  zeroobj          :       0.00       0.00          0          0          0
  zirounding       :       0.72       0.00         17          0          0
  other solutions  :          -          -          -          0          -
Diving (single)    :      Calls      Nodes   LP Iters Backtracks  Conflicts   MinDepth   MaxDepth   AvgDepth  RoundSols  NLeafSols  MinSolDpt  MaxSolDpt  AvgSolDpt
  actconsdiving    :          0          -          -          -          -          -          -          -          -          -          -          -          -
  coefdiving       :          0          -          -          -          -          -          -          -          -          -          -          -          -
  conflictdiving   :          1        130      25188          2        239        129        129      129.0          0          -          -          -          -
  distributiondivin:          0          -          -          -          -          -          -          -          -          -          -          -          -
  farkasdiving     :          1        545      79283          0          0        546        546      546.0          0          1        546        546      546.0
  fracdiving       :          0          -          -          -          -          -          -          -          -          -          -          -          -
  guideddiving     :          0          -          -          -          -          -          -          -          -          -          -          -          -
  linesearchdiving :          0          -          -          -          -          -          -          -          -          -          -          -          -
  pscostdiving     :          0          -          -          -          -          -          -          -          -          -          -          -          -
  veclendiving     :          0          -          -          -          -          -          -          -          -          -          -          -          -
Diving (adaptive)  :      Calls      Nodes   LP Iters Backtracks  Conflicts   MinDepth   MaxDepth   AvgDepth  RoundSols  NLeafSols  MinSolDpt  MaxSolDpt  AvgSolDpt
  actconsdiving    :          0          -          -          -          -          -          -          -          -          -          -          -          -
  coefdiving       :          0          -          -          -          -          -          -          -          -          -          -          -          -
  conflictdiving   :          0          -          -          -          -          -          -          -          -          -          -          -          -
  distributiondivin:          0          -          -          -          -          -          -          -          -          -          -          -          -
  farkasdiving     :          0          -          -          -          -          -          -          -          -          -          -          -          -
  fracdiving       :          0          -          -          -          -          -          -          -          -          -          -          -          -
  guideddiving     :          0          -          -          -          -          -          -          -          -          -          -          -          -
  linesearchdiving :          0          -          -          -          -          -          -          -          -          -          -          -          -
  pscostdiving     :          0          -          -          -          -          -          -          -          -          -          -          -          -
  veclendiving     :          0          -          -          -          -          -          -          -          -          -          -          -          -
Neighborhoods      :      Calls  SetupTime  SolveTime SolveNodes       Sols       Best       Exp3  EpsGreedy        UCB TgtFixRate  Opt  Inf Node Stal  Sol  Usr Othr Actv
  rens             :          0       0.00       0.00          0          0          0    0.00000   -1.00000    1.00000      0.900    0    0    0    0    0    0    0    1
  rins             :          1       0.62       0.44          0          0          0    0.00000   -1.00000    1.00000      0.700    0    1    0    0    0    0    0    1
  mutation         :          0       0.00       0.00          0          0          0    0.00000   -1.00000    1.00000      0.900    0    0    0    0    0    0    0    1
  localbranching   :          0       0.00       0.00          0          0          0    0.00000   -1.00000    1.00000      0.900    0    0    0    0    0    0    0    1
  crossover        :          0       0.00       0.00          0          0          0    0.00000   -1.00000    1.00000      0.900    0    0    0    0    0    0    0    1
  proximity        :          0       0.00       0.00          0          0          0    0.00000   -1.00000    1.00000      0.900    0    0    0    0    0    0    0    1
  zeroobjective    :          0       0.00       0.00          0          0          0    0.00000   -1.00000    1.00000      0.900    0    0    0    0    0    0    0    1
  dins             :          0       0.00       0.00          0          0          0    0.00000   -1.00000    1.00000      0.900    0    0    0    0    0    0    0    1
  trustregion      :          0       0.00       0.00          0          0          0    0.00000   -1.00000    1.00000      0.900    0    0    0    0    0    0    0    0
LP                 :       Time      Calls Iterations  Iter/call   Iter/sec  Time-0-It Calls-0-It    ItLimit
  primal LP        :       0.00          0          0       0.00          -       0.00          0
  dual LP          :     684.86         24      65112    3100.57      95.07      29.77          3
  lex dual LP      :       0.00          0          0       0.00          -
  barrier LP       :       0.00          0          0       0.00          -       0.00          0
  resolve instable :       0.00          0          0       0.00          -
  diving/probing LP:    3174.54        552     133601     242.03      42.09
  strong branching :    2772.74        188     172540     917.77      62.23          -          -        318
    (at root node) :          -         33      29478     893.27          -
  conflict analysis:       1.30          8         80      10.00      61.54
B&B Tree           :
  number of runs   :          1
  nodes            :         21 (17 internal, 4 leaves)
  feasible leaves  :          0
  infeas. leaves   :          0
  objective leaves :          3
  nodes (total)    :         21 (17 internal, 4 leaves)
  nodes left       :         15
  max depth        :         16
  max depth (total):         16
  backtracks       :          0 (0.0%)
  early backtracks :          0 (0.0%)
  nodes exc. ref.  :          0 (0.0%)
  delayed cutoffs  :          0
  repropagations   :          0 (0 domain reductions, 0 cutoffs)
  avg switch length:       1.19
  switching time   :       0.01
Estim. Tree Size   :       1422
Estimation Tree    : 35 nodes (20 visited, 17 inner, 3 leaves, 15 open), weight: 0.0021 completed 0.0823
Estimations        :      estim      value      trend resolution     smooth
  wbe              :       2869          -          -          -          -
  tree-profile     :         -1          -          -          -          -
  gap              :          7    0.62043    0.44268          1          6
  tree-weight      :       1423    0.00209    0.00141          1       1355
  leaf-frequency   :          7    0.12500    0.31474          1          7
  ssg              :         17    0.87121   -0.14649          1         16
  open-nodes       :         40   15.00000    7.56070          1         37
Root Node          :
  First LP value   : -9.10110791673788e+04
  First LP Iters   :      44036 (502.81 Iter/sec)
  First LP Time    :      87.58
  Final Dual Bound : -8.97607102849065e+04
  Final Root Iters :      44036
  Root LP Estimate : -3.37221383462039e+04
Solution           :
  Solutions found  :          6 (5 improvements)
  First Solution   : +0.00000000000000e+00   (in run 1, after 0 nodes, 0.33 seconds, depth 0, found by <trivial>)
  Gap First Sol.   :   infinite
  Gap Last Sol.    :      65.84 %
  Primal Bound     : -5.48790000000000e+04   (in run 1, after 1 nodes, 1911.36 seconds, depth 546, found by <farkasdiving>)
  Dual Bound       : -8.84525833265361e+04
  Gap              :      61.18 %
Integrals          :      Total       Avg%
  primal-dual      :  324383.55      45.05
  primal-ref       :          -          - (not evaluated)
  dual-ref         :          -          - (not evaluated)

SCIP> checksol

check best solution
solution is feasible in original problem
Violation          :    absolute    relative
  bounds           : 0.00000e+00 0.00000e+00
  integrality      : 0.00000e+00           -
  LP rows          : 0.00000e+00 0.00000e+00
  constraints      : 0.00000e+00 0.00000e+00

SCIP> write sol /local/tmp/bzfhende-tmpdir/bzfhende.instancegroups_opm2.49_opm2-zz12-s4.scip.M620v2.periodic_report.sol

written solution information to file </local/tmp/bzfhende-tmpdir/bzfhende.instancegroups_opm2.49_opm2-z12-s4.scip.M620v2.periodic_report.sol>

SCIP> quit

Read MPS: 1
MIP has 10800 vars and 319508 constraints
Read SOL: 1
Objective value computed by solver: -54879

Integrality tolerance: 1/10000
Linear tolerance: 1/10000
Objective tolerance: 1/10000

Check SOL: Integrality 1 Constraints 1 Objective 1
Maximum violations: Integrality 0 Constraints 0 Objective 0
@04 1583644985
-----------------------------
So 8. Mär 06:23:05 CET 2020
-----------------------------

=ready=
